20190619 400 0 0 0
20180613 300 0 0 0
20170620 330 0 0 0
20160530 300 0 0 0
20150522 200 0 0 0
20140528 180 0 0 0
20130607 180 0 0 0
20120619 130 0 0 0
20110616 120 0 0 0
20100617 100 0 0 0
20090610 100 0 0 0
20070710 90 0 0 0
20060713 38 0 0 0
20060428 0 3000 0 0
20000911 0 8000 0 0
19970729 118 0 0 0
19961112 0 2000 0 0
19960716 55 500 0 0
19950906 25 1000 0 0
19940831 25 1000 0 0
